NAME: ETSP
COMMENT: Generated by write_TSPLIB (R package TSP)
TYPE: TSP
DIMENSION: 400
EDGE_WEIGHT_TYPE: EUC_2D
NODE_COORD_SECTION
1 4.761000e+00 1.907400e+01
2 4.761000e+00 3.722300e+01
3 4.761000e+00 5.537200e+01
4 4.761000e+00 7.352100e+01
5 4.761000e+00 1.098190e+02
6 4.761000e+00 1.461170e+02
7 4.761000e+00 1.642650e+02
8 4.761000e+00 1.824140e+02
9 4.761000e+00 2.005630e+02
10 1.000000e+01 1.000000e+01
11 1.000000e+01 4.629800e+01
12 1.000000e+01 8.259600e+01
13 1.000000e+01 1.007440e+02
14 1.000000e+01 1.188930e+02
15 1.000000e+01 1.733400e+02
16 1.000000e+01 1.914890e+02
17 1.523900e+01 1.907400e+01
18 1.523900e+01 3.722300e+01
19 1.523900e+01 5.537200e+01
20 1.523900e+01 7.352100e+01
21 1.523900e+01 9.167000e+01
22 1.523900e+01 1.098190e+02
23 1.523900e+01 1.461170e+02
24 1.523900e+01 1.642650e+02
25 1.523900e+01 1.824140e+02
26 1.523900e+01 2.005630e+02
27 2.047800e+01 1.000000e+01
28 2.047800e+01 2.814900e+01
29 2.047800e+01 4.629800e+01
30 2.047800e+01 8.259600e+01
31 2.047800e+01 1.007440e+02
32 2.047800e+01 1.551910e+02
33 2.047800e+01 2.096380e+02
34 2.571700e+01 1.907400e+01
35 2.571700e+01 3.722300e+01
36 2.571700e+01 5.537200e+01
37 2.571700e+01 9.167000e+01
38 2.571700e+01 1.098190e+02
39 2.571700e+01 1.279680e+02
40 2.571700e+01 1.461170e+02
41 2.571700e+01 1.642650e+02
42 2.571700e+01 1.824140e+02
43 2.571700e+01 2.005630e+02
44 3.095700e+01 1.000000e+01
45 3.095700e+01 2.814900e+01
46 3.095700e+01 4.629800e+01
47 3.095700e+01 6.444700e+01
48 3.095700e+01 1.007440e+02
49 3.095700e+01 1.188930e+02
50 3.095700e+01 1.370420e+02
51 3.095700e+01 1.551910e+02
52 3.095700e+01 2.096380e+02
53 3.619600e+01 3.722300e+01
54 3.619600e+01 5.537200e+01
55 3.619600e+01 7.352100e+01
56 3.619600e+01 9.167000e+01
57 3.619600e+01 1.098190e+02
58 3.619600e+01 1.461170e+02
59 4.143500e+01 1.000000e+01
60 4.143500e+01 2.814900e+01
61 4.143500e+01 4.629800e+01
62 4.143500e+01 6.444700e+01
63 4.143500e+01 8.259600e+01
64 4.143500e+01 1.007440e+02
65 4.143500e+01 1.370420e+02
66 4.143500e+01 1.551910e+02
67 4.143500e+01 1.733400e+02
68 4.143500e+01 1.914890e+02
69 4.143500e+01 2.096380e+02
70 4.667400e+01 1.907400e+01
71 4.667400e+01 3.722300e+01
72 4.667400e+01 7.352100e+01
73 4.667400e+01 9.167000e+01
74 4.667400e+01 1.098190e+02
75 4.667400e+01 1.279680e+02
76 4.667400e+01 1.461170e+02
77 4.667400e+01 1.642650e+02
78 4.667400e+01 1.824140e+02
79 4.667400e+01 2.005630e+02
80 5.191300e+01 1.000000e+01
81 5.191300e+01 2.814900e+01
82 5.191300e+01 4.629800e+01
83 5.191300e+01 6.444700e+01
84 5.191300e+01 1.188930e+02
85 5.191300e+01 1.370420e+02
86 5.191300e+01 1.551910e+02
87 5.191300e+01 1.733400e+02
88 5.191300e+01 1.914890e+02
89 5.191300e+01 2.096380e+02
90 5.715200e+01 3.722300e+01
91 5.715200e+01 5.537200e+01
92 5.715200e+01 7.352100e+01
93 5.715200e+01 9.167000e+01
94 5.715200e+01 1.098190e+02
95 5.715200e+01 1.279680e+02
96 5.715200e+01 1.642650e+02
97 5.715200e+01 1.824140e+02
98 5.715200e+01 2.005630e+02
99 6.239100e+01 1.000000e+01
100 6.239100e+01 2.814900e+01
101 6.239100e+01 4.629800e+01
102 6.239100e+01 6.444700e+01
103 6.239100e+01 8.259600e+01
104 6.239100e+01 1.007440e+02
105 6.239100e+01 1.188930e+02
106 6.239100e+01 1.370420e+02
107 6.239100e+01 1.551910e+02
108 6.239100e+01 1.733400e+02
109 6.239100e+01 1.914890e+02
110 6.239100e+01 2.096380e+02
111 6.763000e+01 1.907400e+01
112 6.763000e+01 3.722300e+01
113 6.763000e+01 5.537200e+01
114 6.763000e+01 7.352100e+01
115 6.763000e+01 9.167000e+01
116 6.763000e+01 1.098190e+02
117 6.763000e+01 1.461170e+02
118 6.763000e+01 1.642650e+02
119 6.763000e+01 1.824140e+02
120 7.287000e+01 1.000000e+01
121 7.287000e+01 2.814900e+01
122 7.287000e+01 4.629800e+01
123 7.287000e+01 6.444700e+01
124 7.287000e+01 1.007440e+02
125 7.287000e+01 1.188930e+02
126 7.287000e+01 1.370420e+02
127 7.287000e+01 1.551910e+02
128 7.287000e+01 1.733400e+02
129 7.287000e+01 1.914890e+02
130 7.810900e+01 1.907400e+01
131 7.810900e+01 5.537200e+01
132 7.810900e+01 7.352100e+01
133 7.810900e+01 9.167000e+01
134 7.810900e+01 1.279680e+02
135 7.810900e+01 1.642650e+02
136 7.810900e+01 1.824140e+02
137 7.810900e+01 2.005630e+02
138 8.334800e+01 2.814900e+01
139 8.334800e+01 4.629800e+01
140 8.334800e+01 8.259600e+01
141 8.334800e+01 1.007440e+02
142 8.334800e+01 1.188930e+02
143 8.334800e+01 1.551910e+02
144 8.334800e+01 1.733400e+02
145 8.334800e+01 1.914890e+02
146 8.334800e+01 2.096380e+02
147 8.858700e+01 1.907400e+01
148 8.858700e+01 3.722300e+01
149 8.858700e+01 7.352100e+01
150 8.858700e+01 9.167000e+01
151 8.858700e+01 1.098190e+02
152 8.858700e+01 1.279680e+02
153 8.858700e+01 1.461170e+02
154 8.858700e+01 1.642650e+02
155 9.382600e+01 1.000000e+01
156 9.382600e+01 6.444700e+01
157 9.382600e+01 8.259600e+01
158 9.382600e+01 1.007440e+02
159 9.382600e+01 1.370420e+02
160 9.382600e+01 1.551910e+02
161 9.382600e+01 1.733400e+02
162 9.382600e+01 1.914890e+02
163 9.382600e+01 2.096380e+02
164 9.906500e+01 1.907400e+01
165 9.906500e+01 3.722300e+01
166 9.906500e+01 7.352100e+01
167 9.906500e+01 9.167000e+01
168 9.906500e+01 1.098190e+02
169 9.906500e+01 1.279680e+02
170 9.906500e+01 1.461170e+02
171 9.906500e+01 1.642650e+02
172 9.906500e+01 1.824140e+02
173 1.043040e+02 1.000000e+01
174 1.043040e+02 2.814900e+01
175 1.043040e+02 8.259600e+01
176 1.043040e+02 1.188930e+02
177 1.043040e+02 1.370420e+02
178 1.043040e+02 1.733400e+02
179 1.043040e+02 1.914890e+02
180 1.043040e+02 2.096380e+02
181 1.095430e+02 1.907400e+01
182 1.095430e+02 3.722300e+01
183 1.095430e+02 5.537200e+01
184 1.095430e+02 7.352100e+01
185 1.095430e+02 9.167000e+01
186 1.095430e+02 1.098190e+02
187 1.095430e+02 1.279680e+02
188 1.095430e+02 1.461170e+02
189 1.095430e+02 1.642650e+02
190 1.095430e+02 1.824140e+02
191 1.095430e+02 2.005630e+02
192 1.147830e+02 1.000000e+01
193 1.147830e+02 2.814900e+01
194 1.147830e+02 4.629800e+01
195 1.147830e+02 6.444700e+01
196 1.147830e+02 1.007440e+02
197 1.147830e+02 1.370420e+02
198 1.147830e+02 1.551910e+02
199 1.147830e+02 1.733400e+02
200 1.147830e+02 2.096380e+02
201 1.200220e+02 1.907400e+01
202 1.200220e+02 3.722300e+01
203 1.200220e+02 5.537200e+01
204 1.200220e+02 7.352100e+01
205 1.200220e+02 9.167000e+01
206 1.200220e+02 1.098190e+02
207 1.200220e+02 1.279680e+02
208 1.200220e+02 1.461170e+02
209 1.200220e+02 2.005630e+02
210 1.252610e+02 2.814900e+01
211 1.252610e+02 4.629800e+01
212 1.252610e+02 8.259600e+01
213 1.252610e+02 1.370420e+02
214 1.252610e+02 1.551910e+02
215 1.252610e+02 1.733400e+02
216 1.252610e+02 1.914890e+02
217 1.252610e+02 2.096380e+02
218 1.305000e+02 1.907400e+01
219 1.305000e+02 3.722300e+01
220 1.305000e+02 5.537200e+01
221 1.305000e+02 7.352100e+01
222 1.305000e+02 9.167000e+01
223 1.305000e+02 1.098190e+02
224 1.305000e+02 1.279680e+02
225 1.305000e+02 1.461170e+02
226 1.305000e+02 1.642650e+02
227 1.305000e+02 1.824140e+02
228 1.305000e+02 2.005630e+02
229 1.357390e+02 1.000000e+01
230 1.357390e+02 2.814900e+01
231 1.357390e+02 4.629800e+01
232 1.357390e+02 1.007440e+02
233 1.357390e+02 1.914890e+02
234 1.357390e+02 2.096380e+02
235 1.409780e+02 3.722300e+01
236 1.409780e+02 5.537200e+01
237 1.409780e+02 9.167000e+01
238 1.409780e+02 1.098190e+02
239 1.409780e+02 1.461170e+02
240 1.409780e+02 1.642650e+02
241 1.409780e+02 1.824140e+02
242 1.409780e+02 2.005630e+02
243 1.462170e+02 1.000000e+01
244 1.462170e+02 2.814900e+01
245 1.462170e+02 4.629800e+01
246 1.462170e+02 6.444700e+01
247 1.462170e+02 8.259600e+01
248 1.462170e+02 1.007440e+02
249 1.462170e+02 1.188930e+02
250 1.462170e+02 1.370420e+02
251 1.462170e+02 1.733400e+02
252 1.514570e+02 3.722300e+01
253 1.514570e+02 5.537200e+01
254 1.514570e+02 9.167000e+01
255 1.514570e+02 1.098190e+02
256 1.514570e+02 1.279680e+02
257 1.514570e+02 1.461170e+02
258 1.514570e+02 1.642650e+02
259 1.514570e+02 1.824140e+02
260 1.514570e+02 2.005630e+02
261 1.566960e+02 4.629800e+01
262 1.566960e+02 6.444700e+01
263 1.566960e+02 8.259600e+01
264 1.566960e+02 1.007440e+02
265 1.566960e+02 1.370420e+02
266 1.566960e+02 1.733400e+02
267 1.566960e+02 2.096380e+02
268 1.619350e+02 7.352100e+01
269 1.619350e+02 9.167000e+01
270 1.619350e+02 1.098190e+02
271 1.619350e+02 1.279680e+02
272 1.619350e+02 1.824140e+02
273 1.619350e+02 2.005630e+02
274 1.671740e+02 4.629800e+01
275 1.671740e+02 6.444700e+01
276 1.671740e+02 8.259600e+01
277 1.671740e+02 1.007440e+02
278 1.671740e+02 1.370420e+02
279 1.671740e+02 1.733400e+02
280 1.671740e+02 1.914890e+02
281 1.671740e+02 2.096380e+02
282 1.724130e+02 3.722300e+01
283 1.724130e+02 5.537200e+01
284 1.724130e+02 7.352100e+01
285 1.724130e+02 9.167000e+01
286 1.724130e+02 1.098190e+02
287 1.724130e+02 1.279680e+02
288 1.724130e+02 1.461170e+02
289 1.724130e+02 1.824140e+02
290 1.776520e+02 1.000000e+01
291 1.776520e+02 4.629800e+01
292 1.776520e+02 6.444700e+01
293 1.776520e+02 8.259600e+01
294 1.776520e+02 1.370420e+02
295 1.776520e+02 1.551910e+02
296 1.776520e+02 1.914890e+02
297 1.776520e+02 2.096380e+02
298 1.828910e+02 7.352100e+01
299 1.828910e+02 9.167000e+01
300 1.828910e+02 1.461170e+02
301 1.828910e+02 1.642650e+02
302 1.828910e+02 1.824140e+02
303 1.828910e+02 2.005630e+02
304 1.881300e+02 1.000000e+01
305 1.881300e+02 6.444700e+01
306 1.881300e+02 8.259600e+01
307 1.881300e+02 1.007440e+02
308 1.881300e+02 1.188930e+02
309 1.881300e+02 1.551910e+02
310 1.881300e+02 1.733400e+02
311 1.881300e+02 1.914890e+02
312 1.881300e+02 2.096380e+02
313 1.933700e+02 1.907400e+01
314 1.933700e+02 3.722300e+01
315 1.933700e+02 5.537200e+01
316 1.933700e+02 9.167000e+01
317 1.933700e+02 1.098190e+02
318 1.933700e+02 1.642650e+02
319 1.933700e+02 1.824140e+02
320 1.933700e+02 2.005630e+02
321 1.986090e+02 1.000000e+01
322 1.986090e+02 2.814900e+01
323 1.986090e+02 4.629800e+01
324 1.986090e+02 6.444700e+01
325 1.986090e+02 8.259600e+01
326 1.986090e+02 1.188930e+02
327 1.986090e+02 1.370420e+02
328 1.986090e+02 1.914890e+02
329 2.038480e+02 1.907400e+01
330 2.038480e+02 5.537200e+01
331 2.038480e+02 7.352100e+01
332 2.038480e+02 9.167000e+01
333 2.038480e+02 1.098190e+02
334 2.038480e+02 1.279680e+02
335 2.038480e+02 1.461170e+02
336 2.038480e+02 1.642650e+02
337 2.038480e+02 1.824140e+02
338 2.090870e+02 2.814900e+01
339 2.090870e+02 4.629800e+01
340 2.090870e+02 1.007440e+02
341 2.090870e+02 1.188930e+02
342 2.090870e+02 1.370420e+02
343 2.090870e+02 1.733400e+02
344 2.090870e+02 1.914890e+02
345 2.143260e+02 3.722300e+01
346 2.143260e+02 5.537200e+01
347 2.143260e+02 9.167000e+01
348 2.143260e+02 1.098190e+02
349 2.143260e+02 1.279680e+02
350 2.143260e+02 1.461170e+02
351 2.143260e+02 2.005630e+02
352 2.195650e+02 1.000000e+01
353 2.195650e+02 2.814900e+01
354 2.195650e+02 4.629800e+01
355 2.195650e+02 8.259600e+01
356 2.195650e+02 1.007440e+02
357 2.195650e+02 1.188930e+02
358 2.195650e+02 1.370420e+02
359 2.195650e+02 1.551910e+02
360 2.195650e+02 1.733400e+02
361 2.195650e+02 1.914890e+02
362 2.195650e+02 2.096380e+02
363 2.248040e+02 3.722300e+01
364 2.248040e+02 5.537200e+01
365 2.248040e+02 9.167000e+01
366 2.248040e+02 1.098190e+02
367 2.248040e+02 1.461170e+02
368 2.248040e+02 1.824140e+02
369 2.248040e+02 2.005630e+02
370 2.300430e+02 1.000000e+01
371 2.300430e+02 2.814900e+01
372 2.300430e+02 4.629800e+01
373 2.300430e+02 6.444700e+01
374 2.300430e+02 8.259600e+01
375 2.300430e+02 1.007440e+02
376 2.300430e+02 1.188930e+02
377 2.300430e+02 1.370420e+02
378 2.300430e+02 1.551910e+02
379 2.300430e+02 1.733400e+02
380 2.300430e+02 1.914890e+02
381 2.300430e+02 2.096380e+02
382 2.352830e+02 3.722300e+01
383 2.352830e+02 7.352100e+01
384 2.352830e+02 9.167000e+01
385 2.352830e+02 1.098190e+02
386 2.352830e+02 1.279680e+02
387 2.352830e+02 1.461170e+02
388 2.352830e+02 1.642650e+02
389 2.352830e+02 2.005630e+02
390 2.405220e+02 1.000000e+01
391 2.405220e+02 2.814900e+01
392 2.405220e+02 4.629800e+01
393 2.405220e+02 6.444700e+01
394 2.405220e+02 8.259600e+01
395 2.405220e+02 1.007440e+02
396 2.405220e+02 1.188930e+02
397 2.405220e+02 1.370420e+02
398 2.405220e+02 1.733400e+02
399 2.405220e+02 1.914890e+02
400 2.405220e+02 2.096380e+02
EOF
